nN = 5;
nR = 15;
nH = 1;

a = [[22, 21, 16, 17, 21, 15, 17, 22, 22, 25, 18, 20, 24, 15, 22], [23, 24, 19, 15, 16, 21, 15, 25, 16, 21, 20, 19, 16, 23, 20], [21, 20, 21, 25, 21, 20, 21, 19, 17, 16, 25, 19, 15, 15, 15], [17, 21, 25, 25, 23, 22, 20, 19, 20, 25, 15, 20, 21, 25, 23], [15, 25, 23, 19, 17, 17, 25, 24, 24, 17, 24, 19, 18, 19, 16]];
c = [[[0, 0, 0, 0, 0, 0, 0, 0, 0, 0, 0, 0, 0, 0, 0], [35, 46, 39, 45, 50, 34, 32, 39, 43, 42, 43, 33, 49, 34, 45], [37, 32, 37, 31, 33, 33, 41, 42, 39, 44, 34, 49, 32, 33, 37], [48, 39, 41, 35, 41, 36, 33, 41, 45, 49, 36, 38, 49, 38, 40], [44, 34, 31, 43, 40, 47, 42, 42, 36, 32, 43, 31, 46, 38, 34]], [[0, 0, 0, 0, 0, 0, 0, 0, 0, 0, 0, 0, 0, 0, 0], [0, 0, 0, 0, 0, 0, 0, 0, 0, 0, 0, 0, 0, 0, 0], [44, 32, 40, 42, 47, 44, 38, 39, 31, 32, 50, 48, 30, 45, 42], [42, 48, 49, 39, 44, 35, 50, 33, 41, 50, 30, 38, 38, 48, 39], [45, 42, 49, 34, 40, 49, 39, 44, 37, 42, 38, 47, 44, 46, 45]], [[0, 0, 0, 0, 0, 0, 0, 0, 0, 0, 0, 0, 0, 0, 0], [0, 0, 0, 0, 0, 0, 0, 0, 0, 0, 0, 0, 0, 0, 0], [0, 0, 0, 0, 0, 0, 0, 0, 0, 0, 0, 0, 0, 0, 0], [35, 48, 39, 48, 34, 50, 49, 37, 38, 41, 39, 47, 37, 45, 50], [45, 38, 33, 48, 48, 49, 34, 44, 35, 32, 44, 38, 46, 35, 36]], [[0, 0, 0, 0, 0, 0, 0, 0, 0, 0, 0, 0, 0, 0, 0], [0, 0, 0, 0, 0, 0, 0, 0, 0, 0, 0, 0, 0, 0, 0], [0, 0, 0, 0, 0, 0, 0, 0, 0, 0, 0, 0, 0, 0, 0], [0, 0, 0, 0, 0, 0, 0, 0, 0, 0, 0, 0, 0, 0, 0], [43, 47, 34, 48, 47, 41, 32, 30, 45, 39, 50, 41, 37, 46, 38]], [[0, 0, 0, 0, 0, 0, 0, 0, 0, 0, 0, 0, 0, 0, 0], [0, 0, 0, 0, 0, 0, 0, 0, 0, 0, 0, 0, 0, 0, 0], [0, 0, 0, 0, 0, 0, 0, 0, 0, 0, 0, 0, 0, 0, 0], [0, 0, 0, 0, 0, 0, 0, 0, 0, 0, 0, 0, 0, 0, 0], [0, 0, 0, 0, 0, 0, 0, 0, 0, 0, 0, 0, 0, 0, 0]]];

q = [[[23], [10], [15], [13], [17], [10], [13], [6], [9], [21], [20], [7], [9], [25], [8]], [[17], [13], [8], [23], [11], [18], [7], [22], [13], [5], [24], [24], [15], [10], [22]], [[22], [17], [22], [23], [20], [11], [17], [25], [23], [9], [22], [20], [15], [9], [25]], [[5], [19], [25], [16], [15], [10], [18], [9], [11], [20], [7], [21], [15], [8], [25]], [[22], [9], [10], [23], [19], [21], [17], [15], [15], [17], [25], [19], [10], [9], [21]]];
Q = [[32], [37], [44], [35], [40]];
